p tw 45 48
1 2
2 13
3 4
3 21
4 5
5 6
5 21
6 29
7 8
8 9
8 24
9 10
10 11
11 12
12 14
13 24
14 15
15 16
16 17
17 18
18 19
19 20
20 24
21 22
22 23
23 25
24 35
25 26
26 27
27 28
28 39
29 30
30 31
31 32
32 33
33 34
34 36
35 41
36 37
37 38
38 24
39 40
41 42
42 43
43 44
43 7
44 45
45 3
